NAME : cvrp-A-G-100-19.2055.tour
COMMENT : Length = 2055
COMMENT : Found by LKH [Keld Helsgaun] Thu May 17 22:42:31 2018
TYPE : TOUR
DIMENSION : 31
TOUR_SECTION
1
30
25
15
9
12
21
27
4
14
5
31
23
19
26
22
20
18
2
16
6
29
17
7
8
3
28
13
10
11
24
-1
EOF
